proyfinal/src/viki/013/experimentInOfficeAgust.take6.output/c3567ab0-8200-4601-bb12-73a1bfd07e88.als.out
Reading from standard input... Use '--help' for help.
============================[ Problem Statistics ]=============================
|                                                                             |
|  Number of variables:         87638                                         |
|  Number of clauses:          161767                                         |
|  Parse time:                   0.04 s                                       |
|                                                                             |
============================[ Search Statistics ]==============================
| Conflicts |          ORIGINAL         |          LEARNT          | Progress |
|           |    Vars  Clauses Literals |    Limit  Clauses Lit/Cl |          |
===============================================================================
|       100 |   63950   110715   276822 |    40595      100     10 | 27.029 % |
|       250 |   63950   110715   276822 |    44655      250     57 | 27.029 % |
|       475 |   63932   110641   276651 |    49120      474     74 | 27.050 % |
|       812 |   63932   110641   276651 |    54032      811     77 | 27.050 % |
|      1318 |   63931   110638   276645 |    59435     1316     93 | 27.051 % |
|      2077 |   63922   110562   276467 |    65379     2007     85 | 27.061 % |
|      3216 |   51173    73159   184240 |    71917     3106     88 | 41.609 % |
|      4924 |   50827    72282   182055 |    79109     4736     74 | 42.003 % |
|      7486 |   50672    71166   179411 |    87020     7266     69 | 42.180 % |
|     11330 |   49353    66352   167537 |    95722    10954     65 | 43.685 % |
===============================================================================
restarts              : 61
conflicts             : 14289          (7491 /sec)
decisions             : 47134          (0.00 % random) (24709 /sec)
propagations          : 19857503       (10409673 /sec)
conflict literals     : 834045         (46.08 % deleted)
Memory used           : 29.02 MB
CPU time              : 1.9076 s

UNSATISFIABLE
